(declare-fun b110 () (_ FloatingPoint 8 24))
(declare-fun b140 () (_ FloatingPoint 8 24))
(declare-fun b86 () (_ FloatingPoint 8 24))
(declare-fun b47 () (_ FloatingPoint 8 24))
(declare-fun b44 () (_ FloatingPoint 8 24))
(declare-fun b65 () (_ FloatingPoint 8 24))
(declare-fun b104 () (_ FloatingPoint 8 24))
(declare-fun b155 () (_ FloatingPoint 8 24))
(declare-fun b152 () (_ FloatingPoint 8 24))
(declare-fun b17 () (_ FloatingPoint 8 24))
(declare-fun b23 () (_ FloatingPoint 8 24))
(declare-fun b131 () (_ FloatingPoint 8 24))
(declare-fun b50 () (_ FloatingPoint 8 24))
(declare-fun b101 () (_ FloatingPoint 8 24))
(declare-fun b26 () (_ FloatingPoint 8 24))
(declare-fun b134 () (_ FloatingPoint 8 24))
(declare-fun b80 () (_ FloatingPoint 8 24))
(declare-fun b113 () (_ FloatingPoint 8 24))
(declare-fun b20 () (_ FloatingPoint 8 24))
(declare-fun b32 () (_ FloatingPoint 8 24))
(declare-fun b125 () (_ FloatingPoint 8 24))
(declare-fun b35 () (_ FloatingPoint 8 24))
(declare-fun b59 () (_ FloatingPoint 8 24))
(declare-fun b143 () (_ FloatingPoint 8 24))
(declare-fun b62 () (_ FloatingPoint 8 24))
(declare-fun b68 () (_ FloatingPoint 8 24))
(declare-fun b38 () (_ FloatingPoint 8 24))
(declare-fun b10 () (_ FloatingPoint 8 24))
(declare-fun b116 () (_ FloatingPoint 8 24))
(declare-fun b74 () (_ FloatingPoint 8 24))
(declare-fun b107 () (_ FloatingPoint 8 24))
(declare-fun b158 () (_ FloatingPoint 8 24))
(declare-fun b137 () (_ FloatingPoint 8 24))
(declare-fun b98 () (_ FloatingPoint 8 24))
(declare-fun b53 () (_ FloatingPoint 8 24))
(declare-fun b77 () (_ FloatingPoint 8 24))
(declare-fun b71 () (_ FloatingPoint 8 24))
(declare-fun b29 () (_ FloatingPoint 8 24))
(declare-fun b119 () (_ FloatingPoint 8 24))
(declare-fun b146 () (_ FloatingPoint 8 24))
(declare-fun b11 () (_ FloatingPoint 8 24))
(declare-fun b56 () (_ FloatingPoint 8 24))
(declare-fun b128 () (_ FloatingPoint 8 24))
(declare-fun b92 () (_ FloatingPoint 8 24))
(declare-fun b14 () (_ FloatingPoint 8 24))
(declare-fun b89 () (_ FloatingPoint 8 24))
(declare-fun b161 () (_ FloatingPoint 8 24))
(declare-fun b83 () (_ FloatingPoint 8 24))
(declare-fun b41 () (_ FloatingPoint 8 24))
(declare-fun b149 () (_ FloatingPoint 8 24))
(declare-fun b122 () (_ FloatingPoint 8 24))
(declare-fun b95 () (_ FloatingPoint 8 24))
(assert (let ((.def_310 (fp.leq b161 b158)))
(let ((.def_12 (fp.div RNE b10 b11)))
(let ((.def_14 (fp.div RNE .def_12 b14)))
(let ((.def_16 (fp.div RNE .def_14 b17)))
(let ((.def_18 (fp.div RNE .def_16 b20)))
(let ((.def_20 (fp.div RNE .def_18 b23)))
(let ((.def_22 (fp.div RNE .def_20 b26)))
(let ((.def_24 (fp.div RNE .def_22 b29)))
(let ((.def_26 (fp.div RNE .def_24 b32)))
(let ((.def_28 (fp.div RNE .def_26 b35)))
(let ((.def_30 (fp.div RNE .def_28 b38)))
(let ((.def_32 (fp.div RNE .def_30 b41)))
(let ((.def_34 (fp.div RNE .def_32 b44)))
(let ((.def_36 (fp.div RNE .def_34 b47)))
(let ((.def_38 (fp.div RNE .def_36 b50)))
(let ((.def_40 (fp.div RNE .def_38 b53)))
(let ((.def_42 (fp.div RNE .def_40 b56)))
(let ((.def_44 (fp.div RNE .def_42 b59)))
(let ((.def_46 (fp.div RNE .def_44 b62)))
(let ((.def_48 (fp.div RNE .def_46 b65)))
(let ((.def_50 (fp.div RNE .def_48 b68)))
(let ((.def_52 (fp.div RNE .def_50 b71)))
(let ((.def_54 (fp.div RNE .def_52 b74)))
(let ((.def_56 (fp.div RNE .def_54 b77)))
(let ((.def_58 (fp.div RNE .def_56 b80)))
(let ((.def_60 (fp.div RNE .def_58 b83)))
(let ((.def_62 (fp.div RNE .def_60 b86)))
(let ((.def_64 (fp.div RNE .def_62 b89)))
(let ((.def_66 (fp.div RNE .def_64 b92)))
(let ((.def_68 (fp.div RNE .def_66 b95)))
(let ((.def_70 (fp.div RNE .def_68 b98)))
(let ((.def_72 (fp.div RNE .def_70 b101)))
(let ((.def_74 (fp.div RNE .def_72 b104)))
(let ((.def_76 (fp.div RNE .def_74 b107)))
(let ((.def_78 (fp.div RNE .def_76 b110)))
(let ((.def_80 (fp.div RNE .def_78 b113)))
(let ((.def_82 (fp.div RNE .def_80 b116)))
(let ((.def_84 (fp.div RNE .def_82 b119)))
(let ((.def_86 (fp.div RNE .def_84 b122)))
(let ((.def_88 (fp.div RNE .def_86 b125)))
(let ((.def_90 (fp.div RNE .def_88 b128)))
(let ((.def_92 (fp.div RNE .def_90 b131)))
(let ((.def_94 (fp.div RNE .def_92 b134)))
(let ((.def_96 (fp.div RNE .def_94 b137)))
(let ((.def_98 (fp.div RNE .def_96 b140)))
(let ((.def_100 (fp.div RNE .def_98 b143)))
(let ((.def_102 (fp.div RNE .def_100 b146)))
(let ((.def_104 (fp.div RNE .def_102 b149)))
(let ((.def_106 (fp.div RNE .def_104 b152)))
(let ((.def_108 (fp.div RNE .def_106 b155)))
(let ((.def_308 (fp.lt b158 .def_108)))
(let ((.def_306 (fp.leq b161 b155)))
(let ((.def_304 (fp.lt b155 .def_106)))
(let ((.def_302 (fp.leq b161 b152)))
(let ((.def_300 (fp.lt b152 .def_104)))
(let ((.def_298 (fp.leq b161 b149)))
(let ((.def_296 (fp.lt b149 .def_102)))
(let ((.def_294 (fp.leq b161 b146)))
(let ((.def_292 (fp.lt b146 .def_100)))
(let ((.def_290 (fp.leq b161 b143)))
(let ((.def_288 (fp.lt b143 .def_98)))
(let ((.def_286 (fp.leq b161 b140)))
(let ((.def_284 (fp.lt b140 .def_96)))
(let ((.def_282 (fp.leq b161 b137)))
(let ((.def_280 (fp.lt b137 .def_94)))
(let ((.def_278 (fp.leq b161 b134)))
(let ((.def_276 (fp.lt b134 .def_92)))
(let ((.def_274 (fp.leq b161 b131)))
(let ((.def_272 (fp.lt b131 .def_90)))
(let ((.def_270 (fp.leq b161 b128)))
(let ((.def_268 (fp.lt b128 .def_88)))
(let ((.def_266 (fp.leq b161 b125)))
(let ((.def_264 (fp.lt b125 .def_86)))
(let ((.def_262 (fp.leq b161 b122)))
(let ((.def_260 (fp.lt b122 .def_84)))
(let ((.def_258 (fp.leq b161 b119)))
(let ((.def_256 (fp.lt b119 .def_82)))
(let ((.def_254 (fp.leq b161 b116)))
(let ((.def_252 (fp.lt b116 .def_80)))
(let ((.def_250 (fp.leq b161 b113)))
(let ((.def_248 (fp.lt b113 .def_78)))
(let ((.def_246 (fp.leq b161 b110)))
(let ((.def_244 (fp.lt b110 .def_76)))
(let ((.def_242 (fp.leq b161 b107)))
(let ((.def_240 (fp.lt b107 .def_74)))
(let ((.def_238 (fp.leq b161 b104)))
(let ((.def_236 (fp.lt b104 .def_72)))
(let ((.def_234 (fp.leq b161 b101)))
(let ((.def_232 (fp.lt b101 .def_70)))
(let ((.def_230 (fp.leq b161 b98)))
(let ((.def_228 (fp.lt b98 .def_68)))
(let ((.def_226 (fp.leq b161 b95)))
(let ((.def_224 (fp.lt b95 .def_66)))
(let ((.def_222 (fp.leq b161 b92)))
(let ((.def_220 (fp.lt b92 .def_64)))
(let ((.def_218 (fp.leq b161 b89)))
(let ((.def_216 (fp.lt b89 .def_62)))
(let ((.def_214 (fp.leq b161 b86)))
(let ((.def_212 (fp.lt b86 .def_60)))
(let ((.def_210 (fp.leq b161 b83)))
(let ((.def_208 (fp.lt b83 .def_58)))
(let ((.def_206 (fp.leq b161 b80)))
(let ((.def_204 (fp.lt b80 .def_56)))
(let ((.def_202 (fp.leq b161 b77)))
(let ((.def_200 (fp.lt b77 .def_54)))
(let ((.def_198 (fp.leq b161 b74)))
(let ((.def_196 (fp.lt b74 .def_52)))
(let ((.def_194 (fp.leq b161 b71)))
(let ((.def_192 (fp.lt b71 .def_50)))
(let ((.def_190 (fp.leq b161 b68)))
(let ((.def_188 (fp.lt b68 .def_48)))
(let ((.def_186 (fp.leq b161 b65)))
(let ((.def_184 (fp.lt b65 .def_46)))
(let ((.def_182 (fp.leq b161 b62)))
(let ((.def_180 (fp.lt b62 .def_44)))
(let ((.def_178 (fp.leq b161 b59)))
(let ((.def_176 (fp.lt b59 .def_42)))
(let ((.def_174 (fp.leq b161 b56)))
(let ((.def_172 (fp.lt b56 .def_40)))
(let ((.def_170 (fp.leq b161 b53)))
(let ((.def_168 (fp.lt b53 .def_38)))
(let ((.def_166 (fp.leq b161 b50)))
(let ((.def_164 (fp.lt b50 .def_36)))
(let ((.def_162 (fp.leq b161 b47)))
(let ((.def_160 (fp.lt b47 .def_34)))
(let ((.def_158 (fp.leq b161 b44)))
(let ((.def_156 (fp.lt b44 .def_32)))
(let ((.def_154 (fp.leq b161 b41)))
(let ((.def_152 (fp.lt b41 .def_30)))
(let ((.def_150 (fp.leq b161 b38)))
(let ((.def_148 (fp.lt b38 .def_28)))
(let ((.def_146 (fp.leq b161 b35)))
(let ((.def_144 (fp.lt b35 .def_26)))
(let ((.def_142 (fp.leq b161 b32)))
(let ((.def_140 (fp.lt b32 .def_24)))
(let ((.def_138 (fp.leq b161 b29)))
(let ((.def_136 (fp.lt b29 .def_22)))
(let ((.def_134 (fp.leq b161 b26)))
(let ((.def_132 (fp.lt b26 .def_20)))
(let ((.def_130 (fp.leq b161 b23)))
(let ((.def_128 (fp.lt b23 .def_18)))
(let ((.def_126 (fp.leq b161 b20)))
(let ((.def_124 (fp.lt b20 .def_16)))
(let ((.def_122 (fp.leq b161 b17)))
(let ((.def_120 (fp.lt b17 .def_14)))
(let ((.def_118 (fp.leq b161 b14)))
(let ((.def_116 (fp.lt b14 .def_12)))
(let ((.def_114 (fp.leq b161 b11)))
(let ((.def_110 (fp.div RNE .def_108 b158)))
(let ((.def_112 (fp.lt .def_110 b161)))
(let ((.def_11 (fp.lt b11 b10)))
(let ((.def_113 (and .def_11 .def_112)))
(let ((.def_115 (and .def_113 .def_114)))
(let ((.def_117 (and .def_115 .def_116)))
(let ((.def_119 (and .def_117 .def_118)))
(let ((.def_121 (and .def_119 .def_120)))
(let ((.def_123 (and .def_121 .def_122)))
(let ((.def_125 (and .def_123 .def_124)))
(let ((.def_127 (and .def_125 .def_126)))
(let ((.def_129 (and .def_127 .def_128)))
(let ((.def_131 (and .def_129 .def_130)))
(let ((.def_133 (and .def_131 .def_132)))
(let ((.def_135 (and .def_133 .def_134)))
(let ((.def_137 (and .def_135 .def_136)))
(let ((.def_139 (and .def_137 .def_138)))
(let ((.def_141 (and .def_139 .def_140)))
(let ((.def_143 (and .def_141 .def_142)))
(let ((.def_145 (and .def_143 .def_144)))
(let ((.def_147 (and .def_145 .def_146)))
(let ((.def_149 (and .def_147 .def_148)))
(let ((.def_151 (and .def_149 .def_150)))
(let ((.def_153 (and .def_151 .def_152)))
(let ((.def_155 (and .def_153 .def_154)))
(let ((.def_157 (and .def_155 .def_156)))
(let ((.def_159 (and .def_157 .def_158)))
(let ((.def_161 (and .def_159 .def_160)))
(let ((.def_163 (and .def_161 .def_162)))
(let ((.def_165 (and .def_163 .def_164)))
(let ((.def_167 (and .def_165 .def_166)))
(let ((.def_169 (and .def_167 .def_168)))
(let ((.def_171 (and .def_169 .def_170)))
(let ((.def_173 (and .def_171 .def_172)))
(let ((.def_175 (and .def_173 .def_174)))
(let ((.def_177 (and .def_175 .def_176)))
(let ((.def_179 (and .def_177 .def_178)))
(let ((.def_181 (and .def_179 .def_180)))
(let ((.def_183 (and .def_181 .def_182)))
(let ((.def_185 (and .def_183 .def_184)))
(let ((.def_187 (and .def_185 .def_186)))
(let ((.def_189 (and .def_187 .def_188)))
(let ((.def_191 (and .def_189 .def_190)))
(let ((.def_193 (and .def_191 .def_192)))
(let ((.def_195 (and .def_193 .def_194)))
(let ((.def_197 (and .def_195 .def_196)))
(let ((.def_199 (and .def_197 .def_198)))
(let ((.def_201 (and .def_199 .def_200)))
(let ((.def_203 (and .def_201 .def_202)))
(let ((.def_205 (and .def_203 .def_204)))
(let ((.def_207 (and .def_205 .def_206)))
(let ((.def_209 (and .def_207 .def_208)))
(let ((.def_211 (and .def_209 .def_210)))
(let ((.def_213 (and .def_211 .def_212)))
(let ((.def_215 (and .def_213 .def_214)))
(let ((.def_217 (and .def_215 .def_216)))
(let ((.def_219 (and .def_217 .def_218)))
(let ((.def_221 (and .def_219 .def_220)))
(let ((.def_223 (and .def_221 .def_222)))
(let ((.def_225 (and .def_223 .def_224)))
(let ((.def_227 (and .def_225 .def_226)))
(let ((.def_229 (and .def_227 .def_228)))
(let ((.def_231 (and .def_229 .def_230)))
(let ((.def_233 (and .def_231 .def_232)))
(let ((.def_235 (and .def_233 .def_234)))
(let ((.def_237 (and .def_235 .def_236)))
(let ((.def_239 (and .def_237 .def_238)))
(let ((.def_241 (and .def_239 .def_240)))
(let ((.def_243 (and .def_241 .def_242)))
(let ((.def_245 (and .def_243 .def_244)))
(let ((.def_247 (and .def_245 .def_246)))
(let ((.def_249 (and .def_247 .def_248)))
(let ((.def_251 (and .def_249 .def_250)))
(let ((.def_253 (and .def_251 .def_252)))
(let ((.def_255 (and .def_253 .def_254)))
(let ((.def_257 (and .def_255 .def_256)))
(let ((.def_259 (and .def_257 .def_258)))
(let ((.def_261 (and .def_259 .def_260)))
(let ((.def_263 (and .def_261 .def_262)))
(let ((.def_265 (and .def_263 .def_264)))
(let ((.def_267 (and .def_265 .def_266)))
(let ((.def_269 (and .def_267 .def_268)))
(let ((.def_271 (and .def_269 .def_270)))
(let ((.def_273 (and .def_271 .def_272)))
(let ((.def_275 (and .def_273 .def_274)))
(let ((.def_277 (and .def_275 .def_276)))
(let ((.def_279 (and .def_277 .def_278)))
(let ((.def_281 (and .def_279 .def_280)))
(let ((.def_283 (and .def_281 .def_282)))
(let ((.def_285 (and .def_283 .def_284)))
(let ((.def_287 (and .def_285 .def_286)))
(let ((.def_289 (and .def_287 .def_288)))
(let ((.def_291 (and .def_289 .def_290)))
(let ((.def_293 (and .def_291 .def_292)))
(let ((.def_295 (and .def_293 .def_294)))
(let ((.def_297 (and .def_295 .def_296)))
(let ((.def_299 (and .def_297 .def_298)))
(let ((.def_301 (and .def_299 .def_300)))
(let ((.def_303 (and .def_301 .def_302)))
(let ((.def_305 (and .def_303 .def_304)))
(let ((.def_307 (and .def_305 .def_306)))
(let ((.def_309 (and .def_307 .def_308)))
(let ((.def_311 (and .def_309 .def_310)))
.def_311))))))))))))))))))))))))))))))))))))))))))))))))))))))))))))))))))))))))))))))))))))))))))))))))))))))))))))))))))))))))))))))))))))))))))))))))))))))))))))))))))))))))))))))))))))))))))))))))))))))))))))))))))))))))))))))))))))))))))))))))))))))))))))
(check-sat)
